c Cardinality constraint <=k(x_1,...,x_n) for k = 2 and n = 7.
p cnf 19 28
-1 8 0
-9 0
-2 10 0
-8 10 0
-2 -8 11 0
-9 11 0
-2 -9 0
-3 12 0
-10 12 0
-3 -10 13 0
-11 13 0
-3 -11 0
-4 14 0
-12 14 0
-4 -12 15 0
-13 15 0
-4 -13 0
-5 16 0
-14 16 0
-5 -14 17 0
-15 17 0
-5 -15 0
-6 18 0
-16 18 0
-6 -16 19 0
-17 19 0
-6 -17 0
-7 -19 0
